p cnf 12 50 
-5 -12 7 0
-9 4 8 0
12 4 9 0
9 -1 -2 0
7 3 -6 0
-4 -3 -2 0
-4 7 -11 0
-12 -7 11 0
5 -11 10 0
3 7 6 0
11 -1 12 0
2 -12 -10 0
-2 5 10 0
12 -11 -6 0
-9 1 7 0
8 -7 -6 0
2 10 12 0
-7 12 -5 0
11 -7 -5 0
-5 6 -3 0
1 -12 5 0
9 -3 7 0
-10 5 -12 0
-1 -2 7 0
5 -12 -8 0
-9 10 -3 0
-11 10 -2 0
2 10 9 0
3 -4 10 0
-5 10 -8 0
5 10 -4 0
-1 -8 -6 0
-10 -7 4 0
1 -11 2 0
8 -4 11 0
11 5 2 0
-4 -11 5 0
-6 7 -3 0
-1 -8 -7 0
10 3 9 0
-9 6 4 0
-5 3 -6 0
-2 7 -1 0
12 3 -7 0
-2 -8 11 0
3 10 4 0
-6 -9 -2 0
-10 12 -6 0
9 4 -6 0
-10 -11 -9 0
